
%FILE DATA:	Soccer Computational Problem for MiniZinc Models	%
%AUTHOR:	Jack Wall	%
%CONTACT:  	116397063@umail.ucc.ie			%
%LAST UPDATE:	03/16/2020, 13:59:12						%
%DESCRIPTION: 	140 games played with 42 games left				%


n=14; %number of teams

%Games to play
games=[|1,12|12,6|5,7|9,12|10,14|12,3|5,1|13,6|14,11|5,10|14,3|5,8|9,6|1,8|4,1|2,5|12,7|4,6|10,12|11,3|7,10|2,10|5,3|14,12|3,11|12,8|6,11|11,1|3,2|7,8|6,10|5,4|2,13|8,4|8,12|10,9|5,12|4,13|2,1|11,5|13,9|3,10|];

%Initial points
iPoints=[28,28,27,34,23,30,27,32,19,17,31,28,22,30];

%POSITION CONSTRAINTS
% [|teamID, operator, position|...]
% operators index:
%  1 for =  operator
%  2 for >  operator
%  3 for >= operator
%  4 for <  operator
%  5 for <= operator
positionConstraints=[|11,3,1|8,3,2|2,5,3|5,5,4|4,5,5|];